NAME: test1728
TYPE: TSP
DIMENSION: 11
EDGE_WEIGHT_TYPE: EUC_2D
NODE_COORD_SECTION
1 23.69080981087679 80.4079504452621
2 37.62793270001894 2.7472837880567202
3 90.39957964724663 32.95136591058356
4 48.095764268515765 59.78582794583115
5 61.0572702573638 55.80819415852948
6 48.36958564397796 37.21507817529489
7 50.713129096757825 17.9843175305774
8 10.02356266635106 15.044382834277126
9 53.24082087481684 26.08072525527898
10 85.16410940055911 30.38167281294024
11 31.888216307727824 51.924461573765754
EOF
